Set parameter TokenServer to value "hpc-licenses.hpcc.usc.edu"
Set parameter TimeLimit to value 3600
Gurobi Optimizer version 9.5.1 build v9.5.1rc2 (linux64)
Thread count: 20 physical cores, 20 logical processors, using up to 20 threads
Optimize a model with 6007 rows, 4529 columns and 24534 nonzeros
Model fingerprint: 0x6a6d9ff5
Variable types: 4506 continuous, 23 integer (23 binary)
Coefficient statistics:
  Matrix range     [1e+00, 1e+00]
  Objective range  [1e-03, 3e+00]
  Bounds range     [1e+00, 1e+00]
  RHS range        [1e+00, 2e+02]
Found heuristic solution: objective 214.6970742
Presolve removed 1520 rows and 1515 columns
Presolve time: 0.06s
Presolved: 4487 rows, 3014 columns, 21975 nonzeros
Variable types: 2994 continuous, 20 integer (20 binary)

Root relaxation: objective 2.375928e+02, 2137 iterations, 0.07 seconds (0.08 work units)

    Nodes    |    Current Node    |     Objective Bounds      |     Work
 Expl Unexpl |  Obj  Depth IntInf | Incumbent    BestBd   Gap | It/Node Time

     0     0  237.59283    0    2  214.69707  237.59283  10.7%     -    0s
H    0     0                     219.3696100  237.59283  8.31%     -    0s
     0     0  237.38965    0    2  219.36961  237.38965  8.21%     -    0s
     0     0  237.08578    0    2  219.36961  237.08578  8.08%     -    0s
     0     0  237.07603    0    2  219.36961  237.07603  8.07%     -    0s
H    0     0                     220.1534206  237.07603  7.69%     -    0s
     0     0  236.88108    0    2  220.15342  236.88108  7.60%     -    0s
     0     0  236.78095    0    2  220.15342  236.78095  7.55%     -    0s
     0     0  234.81003    0    2  220.15342  234.81003  6.66%     -    0s
H    0     0                     233.3823965  234.81003  0.61%     -    0s
     0     0  234.64205    0    2  233.38240  234.64205  0.54%     -    0s
     0     0  234.64205    0    2  233.38240  234.64205  0.54%     -    0s
H    0     0                     233.5694107  234.64205  0.46%     -    1s
     0     0  234.64205    0    2  233.56941  234.64205  0.46%     -    2s
     0     0  234.07409    0    5  233.56941  234.07409  0.22%     -    2s
     0     0  234.07409    0    3  233.56941  234.07409  0.22%     -    2s
     0     0  234.07409    0    3  233.56941  234.07409  0.22%     -    2s
     0     2  234.07409    0    3  233.56941  234.07409  0.22%     -    2s

Cutting planes:
  Gomory: 1
  Implied bound: 286
  MIR: 512
  RLT: 7
  Relax-and-lift: 5

Explored 8 nodes (7333 simplex iterations) in 3.63 seconds (1.39 work units)
Thread count was 20 (of 20 available processors)

Solution count 5: 233.569 233.382 220.153 ... 214.697

Optimal solution found (tolerance 1.00e-04)
Best objective 2.335694107143e+02, best bound 2.335694107143e+02, gap 0.0000%



#########node  1
V1.7
#########node  2
0.0,1.0
#########node  3
1.0,0.0


Total Solving Time 4.023200511932373
obj value 233.56941071426067
Policy Regret train (Sum) 4.147362670960024
Best Treatment Found train (%) 70.19999999999999
treatment classification acc train (%) 75.2
Policy Regret test (Sum) 63.74597884426457
Best Treatment Found test (%) 73.06
treatment classification acc test (%) 74.37
